44
0 21 0 34 41 0 23 35 40 18 11 10 32 39 33 7 35 25 2 1 38 1 12 9 2 40 9 26 8 17 20 27 18 29 19 21 13 17 23 37 22 6 31 35 41 14 19 6 16 11 3 22 11 9 1 21 28 31 8 26 16 12 15 24 7 1 43 29 13 38 27 36 5 14 42 5 10 20 17 30 13 4 19 34 29 4 36 43 28 6 10 37 8 25 3 3 32 15 42 24 